
Gurobi 9.1.1 (linux64) logging started Sun Oct 17 22:48:33 2021

Changed value of parameter LogFile to results/max2cut_numv160/max2cut_numv160_i160-113_BQO_log.txt
   Prev:   Default: 
Gurobi Optimizer version 9.1.1 build v9.1.1rc0 (linux64)
Thread count: 20 physical cores, 40 logical processors, using up to 10 threads
Optimize a model with 160 rows, 320 columns and 320 nonzeros
Model fingerprint: 0xb45610c4
Model has 1944 quadratic objective terms
Variable types: 0 continuous, 320 integer (320 binary)
Coefficient statistics:
  Matrix range     [1e+00, 1e+00]
  Objective range  [8e+01, 8e+01]
  QObjective range [2e+02, 6e+02]
  Bounds range     [1e+00, 1e+00]
  RHS range        [1e+00, 1e+00]
Found heuristic solution: objective -0.0000000
Presolve removed 160 rows and 161 columns
Presolve time: 0.01s
Presolved: 792 rows, 951 columns, 2376 nonzeros
Variable types: 0 continuous, 951 integer (951 binary)
Found heuristic solution: objective 42505.000000

Root relaxation: objective -9.176250e+04, 122 iterations, 0.00 seconds

    Nodes    |    Current Node    |     Objective Bounds      |     Work
 Expl Unexpl |  Obj  Depth IntInf | Incumbent    BestBd   Gap | It/Node Time

     0     0 91762.5000    0  159 42505.0000 91762.5000   116%     -    0s
H    0     0                    48870.000000 91762.5000  87.8%     -    0s
H    0     0                    59612.000000 91762.5000  53.9%     -    0s
H    0     0                    59831.000000 91762.5000  53.4%     -    0s
H    0     0                    61193.000000 91762.5000  50.0%     -    0s
     0     0 79779.0000    0  285 61193.0000 79779.0000  30.4%     -    0s
     0     0 78724.0000    0  298 61193.0000 78724.0000  28.6%     -    0s
     0     0 78724.0000    0  298 61193.0000 78724.0000  28.6%     -    0s
     0     2 78724.0000    0  298 61193.0000 78724.0000  28.6%     -    0s
H   77    96                    62545.000000 76441.0000  22.2%   117    0s
H  201   216                    64078.000000 76441.0000  19.3%  90.1    0s
H  277   302                    64183.000000 76441.0000  19.1%  79.4    0s
H  352   382                    64191.000000 76441.0000  19.1%  69.6    0s
H  380   382                    64214.000000 76441.0000  19.0%  68.5    0s
H  444   433                    64712.000000 76441.0000  18.1%  64.2    0s
H  476   433                    64751.000000 76441.0000  18.1%  63.6    0s
H  524   509                    65345.000000 76441.0000  17.0%  63.7    0s
H  548   509                    66031.000000 76441.0000  15.8%  62.6    0s
H  612   562                    66191.000000 76441.0000  15.5%  61.3    1s
H  617   562                    66369.000000 76441.0000  15.2%  61.2    1s
H  619   562                    66395.000000 76441.0000  15.1%  61.3    1s
H  622   562                    66958.000000 76441.0000  14.2%  61.3    1s

Cutting planes:
  Gomory: 49
  MIR: 46
  Flow cover: 6
  Zero half: 435
  RLT: 82
  BQP: 9

Explored 1729 nodes (101700 simplex iterations) in 5.00 seconds
Thread count was 10 (of 40 available processors)

Solution count 10: 66958 66395 66369 ... 64191

Time limit reached
Best objective 6.695800000000e+04, best bound 7.299900000000e+04, gap 9.0221%
